data/solutions/planning/degenerate/moderate/highest_rank_objective/degenerate_moderate_instance6_cplex.sol
Elapsed time: 2.8
Nodes explored: 1157
Nodes left: -
Relative gap: -
Upper bound: 63787408.0
Lower bound: -
C[0]=9112604.0
C[1]=9112530.0
C[2]=9111932.0
y[0]=0
y[1]=0
y[2]=0
y[3]=1
y[4]=1
y[5]=2
y[6]=2
y[7]=0
y[8]=2
y[9]=1
y[10]=1
y[11]=1
y[12]=2
y[13]=2
y[14]=1
y[15]=0
y[16]=0
y[17]=2
y[18]=0
y[19]=1
y[20]=0
y[21]=2
y[22]=1
y[23]=2
y[24]=0
